NAME: burma14
TYPE: TSP
COMMENT: 14-Staedte in Burma (Zaw Win)
DIMENSION: 14
EDGE_WEIGHT_TYPE: GEO
EDGE_WEIGHT_FORMAT: FUNCTION 
DISPLAY_DATA_TYPE: COORD_DISPLAY
NODE_COORD_SECTION
0 14.00 95.50
1 16.12 94.44
2 20.09 92.54
3 22.39 93.37
4 24.32 97.24
5 21.47 97.00
6 18.04 95.01
7 15.07 98.05
8 17.50 98.38
9 25.12 95.59
10 19.05 97.12
11 20.09 94.55
12 13.50 97.50
13 24.75 94.53
EOF